c K to QBF translator. (C)Rice University.
c From input file 14-2.lwb
p cnf 44 95
e 44 1 43 0
r 0.078 16 0
e 18 42 13 12 11 10 9 8 7 6 5 4 3 2 29 36 37 38 39 40 41 0
r 0.962 17 0
e 30 35 15 14 32 33 34 31 28 19 20 21 22 23 24 25 26 27 0
44  0 
44 -43 -1  0 
43 -44  0 
1 -44  0 
-43 18 42  0 
-18 43  0 
-42 43  0 
-18 -16 -1  0 
16 18  0 
1 18  0 
42 -29 -36 -37 -38 -39 -40 -41  0 
29 -42  0 
36 -42  0 
37 -42  0 
38 -42  0 
39 -42  0 
40 -42  0 
41 -42  0 
-29 -16 28  0 
16 29  0 
-28 29  0 
28 -19 -20 -21 -22 -23 -24 -25 -26 -27  0 
19 -28  0 
20 -28  0 
21 -28  0 
22 -28  0 
23 -28  0 
24 -28  0 
25 -28  0 
26 -28  0 
27 -28  0 
-19 6 4  0 
-6 19  0 
-4 19  0 
-20 2 4  0 
-2 20  0 
-4 20  0 
-21 2 6  0 
-2 21  0 
-6 21  0 
-22 7 5  0 
-7 22  0 
-5 22  0 
-23 8 7  0 
-8 23  0 
-7 23  0 
-24 8 5  0 
-8 24  0 
-5 24  0 
-25 10 9  0 
-10 25  0 
-9 25  0 
-26 13 3  0 
-13 26  0 
-3 26  0 
-27 12 11  0 
-12 27  0 
-11 27  0 
-36 30 35  0 
-30 36  0 
-35 36  0 
-30 -17 -2  0 
17 30  0 
2 30  0 
35 -32 -33 -34  0 
32 -35  0 
33 -35  0 
34 -35  0 
-32 31 15  0 
-31 32  0 
-15 32  0 
-31 -3 -2  0 
3 31  0 
2 31  0 
-33 -17 14  0 
17 33  0 
-14 33  0 
-34 -14 -15  0 
14 34  0 
15 34  0 
-37 -8 -13  0 
8 37  0 
13 37  0 
-38 -7 -12  0 
7 38  0 
12 38  0 
-39 -6 -11  0 
6 39  0 
11 39  0 
-40 -5 -10  0 
5 40  0 
10 40  0 
-41 -4 -9  0 
4 41  0 
9 41  0 
